Route #1: 26 7 35 53 11 14 19 8
Route #2: 17 3 44 32 25 50 18 24 49 51
Route #3: 45 29 5 36 37 20 15 13 54 27
Route #4: 30 48 47 21 28 2
Route #5: 38 10 31 39 9 40 12
Route #6: 16 23 43 41 42 22 1 33 6
Route #7: 46 34 52 4
cost 582
